20	5
0	10	4	3	7	10	9	8	6	2	5	1
1	6	18	20	15	14	16	19
2	3	20	14	12
3	6	11	17	16	14	12	18
4	5	12	17	19	11	14
5	3	15	17	13
6	3	13	19	17
7	3	18	16	12
8	2	16	17
9	4	13	15	19	18
10	5	13	11	15	19	12
11	1	21
12	1	21
13	1	21
14	1	21
15	1	21
16	1	21
17	1	21
18	1	21
19	1	21
20	1	21
21	0
0	0	0	0	0	0	0
1	7	1	1	5	4	5
2	7	4	5	4	1	5
3	7	0	0	3	3	2
4	2	5	1	0	4	2
5	7	0	0	2	5	0
6	6	4	0	0	0	1
7	10	0	0	2	0	0
8	8	0	1	0	0	0
9	4	4	3	0	2	0
10	5	0	3	0	0	0
11	9	4	0	1	5	0
12	2	3	4	0	0	4
13	2	5	5	0	3	0
14	8	0	0	0	1	0
15	2	0	5	3	0	0
16	5	2	0	1	3	0
17	2	4	3	0	5	0
18	4	5	5	1	0	0
19	9	1	0	0	0	0
20	9	0	0	1	0	0
21	0	0	0	0	0	0
10	7	7	10	7
